32      4       
11      13      13      11      
0       0       0       0       0       1       2       
5       3       7       4       1       1       3       
5       4       1       1       3       1       4       
8       2       4       1       4       1       5       
8       1       1       7       7       1       6       
2       1       1       9       2       1       7       
8       7       1       1       1       3       19      16      8       
2       2       6       1       1       1       9       
2       4       1       6       8       2       14      10      
1       3       1       1       1       1       11      
3       1       7       6       4       1       12      
4       1       5       6       2       1       13      
8       1       6       4       6       1       15      
7       3       1       1       1       1       15      
1       4       1       1       1       1       17      
6       1       5       2       1       1       17      
1       1       6       6       1       1       18      
7       5       1       1       2       1       20      
9       1       2       5       1       1       20      
4       5       8       1       1       1       21      
5       5       10      5       2       1       22      
2       5       1       4       5       1       23      
9       2       2       1       1       1       24      
3       4       1       3       4       1       25      
9       2       1       1       3       1       26      
5       1       7       1       1       1       27      
10      2       7       3       1       1       28      
1       1       1       10      5       1       29      
1       3       1       1       1       1       30      
9       6       1       1       5       1       31      
3       2       1       4       7       1       32      
0       0       0       0       0       0       
